DIMACS_lns/graph-1000-201.col
p edge 1000 1841
e 1 472
e 1 372
e 1 925
e 1 829
e 1 635
e 2 570
e 2 887
e 2 625
e 2 174
e 3 143
e 3 722
e 3 721
e 3 90
e 4 596
e 4 789
e 4 616
e 4 92
e 4 579
e 4 865
e 6 588
e 6 553
e 6 219
e 8 486
e 8 163
e 8 430
e 8 339
e 8 319
e 9 594
e 9 306
e 9 397
e 9 542
e 9 861
e 10 32
e 10 365
e 10 307
e 11 904
e 11 712
e 11 537
e 11 845
e 12 603
e 12 998
e 12 121
e 13 448
e 13 562
e 13 361
e 13 146
e 14 697
e 14 482
e 14 681
e 15 542
e 15 859
e 15 158
e 15 984
e 17 932
e 17 396
e 17 73
e 17 549
e 18 944
e 18 914
e 18 365
e 18 870
e 18 382
e 18 202
e 19 433
e 19 512
e 19 434
e 19 98
e 20 247
e 20 384
e 20 756
e 20 919
e 20 984
e 20 83
e 21 224
e 21 929
e 21 955
e 21 764
e 22 403
e 22 186
e 22 832
e 22 464
e 22 448
e 23 532
e 23 287
e 23 559
e 25 509
e 25 928
e 25 94
e 25 67
e 25 179
e 25 43
e 25 427
e 27 796
e 27 707
e 27 487
e 27 873
e 27 551
e 31 754
e 31 629
e 31 202
e 31 83
e 31 880
e 31 707
e 31 409
e 32 418
e 32 671
e 32 523
e 34 850
e 34 909
e 34 78
e 34 833
e 34 46
e 34 61
e 35 881
e 35 440
e 35 623
e 35 233
e 36 549
e 36 260
e 36 545
e 37 341
e 37 141
e 37 411
e 38 898
e 38 643
e 38 928
e 38 40
e 38 58
e 39 95
e 39 991
e 39 490
e 40 915
e 40 131
e 40 236
e 40 927
e 40 549
e 40 865
e 40 52
e 41 527
e 41 420
e 41 493
e 41 551
e 41 471
e 41 362
e 41 327
e 42 374
e 42 736
e 42 652
e 42 487
e 42 855
e 42 816
e 43 238
e 43 732
e 43 221
e 43 90
e 43 320
e 43 137
e 43 391
e 44 613
e 44 963
e 44 224
e 46 374
e 46 624
e 46 718
e 46 879
e 46 164
e 46 401
e 47 221
e 47 299
e 47 886
e 47 943
e 47 533
e 47 392
e 47 781
e 49 364
e 49 256
e 49 140
e 49 525
e 50 217
e 50 746
e 50 225
e 50 578
e 50 78
e 52 914
e 52 631
e 53 254
e 53 810
e 53 221
e 53 209
e 53 726
e 53 778
e 53 665
e 54 960
e 54 91
e 54 442
e 54 653
e 56 556
e 56 197
e 56 379
e 56 185
e 56 242
e 58 814
e 58 596
e 58 134
e 59 937
e 59 632
e 59 194
e 59 717
e 59 99
e 59 666
e 60 344
e 60 304
e 60 954
e 60 421
e 60 316
e 61 522
e 61 472
e 63 320
e 63 382
e 63 445
e 63 80
e 63 246
e 64 344
e 64 523
e 64 686
e 64 353
e 65 274
e 65 634
e 65 724
e 65 207
e 65 933
e 66 107
e 66 585
e 66 825
e 66 746
e 67 494
e 67 180
e 67 214
e 67 138
e 67 175
e 67 332
e 68 774
e 68 372
e 68 173
e 69 755
e 69 748
e 69 744
e 69 781
e 69 463
e 69 148
e 70 832
e 70 801
e 70 394
e 70 887
e 70 603
e 71 630
e 71 492
e 71 650
e 71 423
e 71 393
e 71 373
e 73 698
e 73 383
e 73 520
e 73 671
e 73 799
e 74 866
e 74 768
e 74 633
e 74 250
e 74 408
e 74 85
e 74 631
e 75 138
e 75 493
e 75 534
e 76 915
e 76 227
e 76 137
e 76 479
e 76 919
e 76 810
e 76 577
e 78 217
e 78 572
e 78 947
e 78 729
e 79 413
e 79 873
e 79 559
e 79 456
e 80 352
e 80 994
e 80 672
e 80 507
e 80 557
e 81 991
e 81 479
e 81 459
e 81 513
e 81 383
e 81 497
e 81 236
e 82 769
e 82 131
e 82 928
e 83 452
e 83 391
e 83 557
e 84 572
e 84 237
e 84 975
e 85 899
e 85 431
e 85 158
e 86 256
e 86 359
e 86 781
e 86 338
e 86 615
e 87 443
e 87 289
e 87 416
e 88 188
e 88 513
e 88 403
e 88 443
e 88 839
e 89 178
e 89 493
e 89 636
e 90 278
e 90 628
e 90 578
e 90 365
e 90 238
e 90 934
e 91 768
e 91 976
e 92 102
e 92 998
e 92 996
e 92 995
e 92 958
e 92 106
e 92 851
e 92 553
e 92 453
e 93 579
e 93 554
e 93 724
e 93 750
e 93 785
e 93 492
e 93 229
e 94 913
e 94 365
e 94 984
e 95 279
e 95 253
e 95 820
e 96 324
e 96 998
e 96 180
e 96 479
e 97 578
e 97 873
e 97 829
e 97 704
e 98 712
e 98 324
e 99 378
e 99 489
e 99 941
e 100 548
e 100 751
e 100 712
e 101 254
e 101 934
e 101 486
e 101 303
e 102 446
e 102 381
e 102 659
e 103 909
e 103 629
e 103 119
e 104 300
e 104 156
e 104 824
e 105 361
e 105 923
e 105 615
e 105 548
e 105 172
e 106 520
e 106 615
e 106 335
e 106 204
e 107 684
e 107 457
e 107 388
e 107 803
e 107 870
e 108 733
e 108 266
e 108 326
e 111 559
e 111 202
e 111 336
e 112 808
e 112 1000
e 112 645
e 112 149
e 113 660
e 113 351
e 113 116
e 113 974
e 113 580
e 114 996
e 114 678
e 114 748
e 114 548
e 115 940
e 115 751
e 115 480
e 115 328
e 116 287
e 116 119
e 116 357
e 116 824
e 118 928
e 118 480
e 118 697
e 118 364
e 118 826
e 119 733
e 119 988
e 120 667
e 120 932
e 120 357
e 120 693
e 120 545
e 120 422
e 121 639
e 121 423
e 121 563
e 122 693
e 122 524
e 122 512
e 123 214
e 123 686
e 123 697
e 124 222
e 124 648
e 124 937
e 124 774
e 124 266
e 125 807
e 125 954
e 125 891
e 125 213
e 127 336
e 127 332
e 127 383
e 129 564
e 129 528
e 129 621
e 129 194
e 129 626
e 131 353
e 131 300
e 131 832
e 131 941
e 131 723
e 131 291
e 134 422
e 134 807
e 134 358
e 135 941
e 135 445
e 135 944
e 135 266
e 135 301
e 135 829
e 136 509
e 136 338
e 136 886
e 136 945
e 136 505
e 137 808
e 137 463
e 137 702
e 138 396
e 138 378
e 138 781
e 138 503
e 138 201
e 139 823
e 139 285
e 139 570
e 139 494
e 140 461
e 140 662
e 141 383
e 141 318
e 141 271
e 141 400
e 142 793
e 142 672
e 142 894
e 142 883
e 143 331
e 143 967
e 144 933
e 144 731
e 144 855
e 144 432
e 144 643
e 144 735
e 145 289
e 145 737
e 145 695
e 145 268
e 145 496
e 146 575
e 146 439
e 146 959
e 146 957
e 147 237
e 147 156
e 147 370
e 147 489
e 148 166
e 148 516
e 148 601
e 148 634
e 149 400
e 149 609
e 150 600
e 150 837
e 150 717
e 150 182
e 151 613
e 151 240
e 151 792
e 151 885
e 151 635
e 153 520
e 153 444
e 153 415
e 153 156
e 153 733
e 153 439
e 154 596
e 154 549
e 154 424
e 156 215
e 156 298
e 156 618
e 157 520
e 157 463
e 157 353
e 157 545
e 157 884
e 158 326
e 158 213
e 158 917
e 161 541
e 161 269
e 161 206
e 162 494
e 162 779
e 162 192
e 163 424
e 163 684
e 163 674
e 163 317
e 163 381
e 163 555
e 164 631
e 164 779
e 164 593
e 165 919
e 165 482
e 165 236
e 166 926
e 166 722
e 166 247
e 166 468
e 167 279
e 167 885
e 167 558
e 169 601
e 169 897
e 169 545
e 169 720
e 170 990
e 170 635
e 170 176
e 171 815
e 171 437
e 171 906
e 171 408
e 172 245
e 172 562
e 172 995
e 172 659
e 172 443
e 172 942
e 172 327
e 172 621
e 173 522
e 173 344
e 174 433
e 174 686
e 174 827
e 175 505
e 175 478
e 175 815
e 176 791
e 176 885
e 176 764
e 177 435
e 177 527
e 177 396
e 178 284
e 178 854
e 178 982
e 178 796
e 179 933
e 179 465
e 179 600
e 179 853
e 179 396
e 180 381
e 180 772
e 180 621
e 182 328
e 182 684
e 182 990
e 182 211
e 182 369
e 183 546
e 183 912
e 183 828
e 183 596
e 183 235
e 183 198
e 183 555
e 185 669
e 185 355
e 185 227
e 185 203
e 185 705
e 186 945
e 186 428
e 186 862
e 188 929
e 188 743
e 188 576
e 188 875
e 188 452
e 188 623
e 190 803
e 190 462
e 190 512
e 191 766
e 191 509
e 191 212
e 191 463
e 192 849
e 192 568
e 192 689
e 192 685
e 194 568
e 194 793
e 194 772
e 194 626
e 195 866
e 195 456
e 195 962
e 197 726
e 197 958
e 198 798
e 198 960
e 198 629
e 198 258
e 198 924
e 198 618
e 199 866
e 199 964
e 199 736
e 199 754
e 199 374
e 199 384
e 199 679
e 200 325
e 200 370
e 200 330
e 200 940
e 200 363
e 200 826
e 201 963
e 201 949
e 201 942
e 201 245
e 202 594
e 202 808
e 203 666
e 203 885
e 203 372
e 203 642
e 204 371
e 204 391
e 204 234
e 206 996
e 206 551
e 207 514
e 207 666
e 207 906
e 208 280
e 208 636
e 208 481
e 208 909
e 208 408
e 209 805
e 209 866
e 209 726
e 209 330
e 210 839
e 210 576
e 210 538
e 210 679
e 211 818
e 211 930
e 212 983
e 212 957
e 213 847
e 213 943
e 213 382
e 214 910
e 214 583
e 215 356
e 215 224
e 215 406
e 217 726
e 217 545
e 217 244
e 218 839
e 218 625
e 218 845
e 219 935
e 219 828
e 219 430
e 221 945
e 221 537
e 221 818
e 221 726
e 221 384
e 221 250
e 221 263
e 221 929
e 222 552
e 222 848
e 223 490
e 223 564
e 223 809
e 224 755
e 225 764
e 225 465
e 225 542
e 225 643
e 227 730
e 227 854
e 227 931
e 227 696
e 227 974
e 227 398
e 228 316
e 228 738
e 228 477
e 228 379
e 228 626
e 229 963
e 229 545
e 232 817
e 232 263
e 232 831
e 232 265
e 232 564
e 233 666
e 233 525
e 233 746
e 234 787
e 234 653
e 234 379
e 235 585
e 235 681
e 236 244
e 237 462
e 237 552
e 238 524
e 238 636
e 238 841
e 238 660
e 240 260
e 240 452
e 242 785
e 242 630
e 242 507
e 244 397
e 244 471
e 244 568
e 245 859
e 245 344
e 245 697
e 246 338
e 246 299
e 246 982
e 246 439
e 247 522
e 250 856
e 250 630
e 250 833
e 252 412
e 252 735
e 252 293
e 253 398
e 253 660
e 253 701
e 254 767
e 254 265
e 254 563
e 256 882
e 258 818
e 258 339
e 258 401
e 258 890
e 259 363
e 259 719
e 259 514
e 259 365
e 260 362
e 263 508
e 263 875
e 265 677
e 265 714
e 265 678
e 266 642
e 268 680
e 268 425
e 269 896
e 269 837
e 269 410
e 269 488
e 271 651
e 271 761
e 271 317
e 271 755
e 271 631
e 271 465
e 271 774
e 272 535
e 272 471
e 272 833
e 273 813
e 273 750
e 273 569
e 273 865
e 274 667
e 274 793
e 274 589
e 274 317
e 274 849
e 274 313
e 278 730
e 278 440
e 278 458
e 278 706
e 278 959
e 278 651
e 279 813
e 280 589
e 280 572
e 281 636
e 281 771
e 281 419
e 283 882
e 283 557
e 283 381
e 283 344
e 284 287
e 284 677
e 285 697
e 285 808
e 287 831
e 287 315
e 287 947
e 287 663
e 289 628
e 289 785
e 289 724
e 289 441
e 289 806
e 289 904
e 289 323
e 291 458
e 291 354
e 291 919
e 291 534
e 292 559
e 292 522
e 292 861
e 292 999
e 292 337
e 292 352
e 293 577
e 293 535
e 298 750
e 298 841
e 298 391
e 298 907
e 298 952
e 299 932
e 299 915
e 299 512
e 300 301
e 300 468
e 301 653
e 301 804
e 301 651
e 301 701
e 303 922
e 303 843
e 304 494
e 304 564
e 304 688
e 304 544
e 306 955
e 306 609
e 306 503
e 307 419
e 307 875
e 307 748
e 307 716
e 307 853
e 307 500
e 307 643
e 308 998
e 308 659
e 308 760
e 309 866
e 309 442
e 309 945
e 313 596
e 313 999
e 313 715
e 313 644
e 314 808
e 314 718
e 314 430
e 315 671
e 315 831
e 316 686
e 316 335
e 316 807
e 317 901
e 318 560
e 318 827
e 318 381
e 318 480
e 318 870
e 319 869
e 319 653
e 319 486
e 320 415
e 320 472
e 320 848
e 320 461
e 320 613
e 320 776
e 320 924
e 320 533
e 323 456
e 323 946
e 323 407
e 324 891
e 324 693
e 325 687
e 325 457
e 325 644
e 325 976
e 325 603
e 326 969
e 326 585
e 326 357
e 327 627
e 327 455
e 327 419
e 328 719
e 328 785
e 328 594
e 330 938
e 330 627
e 330 910
e 330 973
e 330 713
e 331 344
e 331 681
e 332 897
e 333 625
e 333 508
e 333 589
e 335 960
e 335 869
e 335 400
e 335 456
e 336 677
e 336 369
e 336 750
e 337 369
e 337 403
e 337 901
e 337 824
e 338 547
e 338 562
e 339 898
e 339 952
e 339 731
e 340 433
e 340 730
e 340 839
e 341 434
e 341 548
e 341 394
e 341 579
e 343 557
e 343 957
e 343 402
e 343 351
e 344 481
e 344 933
e 344 923
e 345 415
e 345 382
e 345 446
e 351 667
e 351 595
e 351 434
e 352 691
e 353 404
e 353 477
e 353 960
e 353 595
e 354 485
e 354 524
e 355 637
e 355 623
e 356 938
e 356 719
e 358 730
e 358 726
e 359 433
e 359 908
e 359 772
e 361 908
e 362 898
e 363 620
e 363 396
e 363 633
e 363 905
e 363 771
e 364 456
e 364 588
e 364 873
e 364 722
e 364 603
e 365 956
e 366 964
e 366 671
e 366 710
e 368 404
e 368 468
e 368 583
e 369 459
e 369 942
e 369 838
e 369 729
e 370 592
e 371 424
e 371 637
e 371 411
e 371 899
e 372 750
e 372 705
e 372 710
e 372 746
e 372 955
e 372 554
e 372 801
e 373 594
e 373 999
e 374 469
e 374 419
e 375 896
e 375 793
e 375 967
e 375 778
e 378 926
e 378 735
e 379 893
e 379 480
e 380 799
e 380 461
e 380 404
e 381 917
e 381 669
e 381 941
e 382 825
e 382 995
e 382 764
e 383 846
e 384 641
e 384 972
e 384 971
e 385 810
e 385 844
e 385 926
e 386 495
e 386 926
e 386 494
e 386 547
e 387 487
e 387 949
e 387 934
e 388 480
e 388 627
e 388 912
e 389 680
e 389 887
e 389 522
e 391 508
e 391 633
e 391 940
e 391 985
e 391 545
e 391 702
e 391 925
e 392 793
e 392 468
e 392 914
e 393 492
e 393 444
e 393 801
e 393 625
e 394 544
e 394 696
e 394 408
e 395 897
e 395 617
e 395 736
e 395 632
e 396 722
e 397 749
e 397 744
e 397 877
e 397 958
e 397 577
e 398 407
e 398 746
e 398 884
e 398 949
e 398 612
e 398 631
e 399 681
e 399 508
e 399 736
e 400 578
e 400 699
e 400 418
e 400 627
e 401 779
e 401 771
e 401 785
e 402 691
e 402 768
e 402 883
e 402 658
e 403 566
e 403 462
e 403 572
e 403 665
e 404 557
e 405 508
e 405 522
e 405 467
e 405 927
e 405 827
e 406 484
e 406 449
e 407 931
e 408 535
e 408 905
e 408 946
e 408 633
e 409 563
e 409 417
e 409 923
e 409 559
e 410 662
e 410 869
e 410 468
e 411 435
e 412 693
e 412 414
e 412 568
e 412 514
e 412 718
e 412 811
e 412 528
e 413 599
e 413 991
e 414 416
e 414 940
e 415 488
e 415 969
e 415 931
e 415 546
e 416 500
e 416 448
e 416 979
e 416 965
e 416 955
e 417 733
e 417 982
e 418 840
e 418 548
e 419 690
e 419 660
e 419 427
e 419 645
e 419 798
e 419 723
e 420 985
e 420 732
e 420 919
e 421 769
e 421 964
e 421 702
e 422 455
e 422 789
e 422 511
e 422 856
e 423 741
e 424 479
e 424 493
e 424 601
e 424 843
e 425 541
e 425 851
e 425 724
e 425 967
e 425 880
e 425 873
e 425 896
e 427 807
e 427 985
e 428 489
e 428 856
e 428 791
e 428 879
e 430 943
e 430 741
e 430 880
e 431 621
e 431 803
e 432 952
e 432 912
e 432 522
e 432 557
e 433 632
e 433 754
e 434 507
e 434 954
e 434 735
e 434 926
e 434 982
e 435 542
e 435 894
e 437 535
e 437 838
e 437 772
e 437 639
e 439 829
e 440 823
e 441 596
e 441 801
e 442 985
e 442 571
e 443 627
e 443 1000
e 443 481
e 443 753
e 444 756
e 444 819
e 445 880
e 445 744
e 446 868
e 447 795
e 447 858
e 447 481
e 449 731
e 449 467
e 452 982
e 452 652
e 452 960
e 452 921
e 453 899
e 453 868
e 455 858
e 455 464
e 455 469
e 456 901
e 456 848
e 457 811
e 458 659
e 458 723
e 459 833
e 459 941
e 461 994
e 461 594
e 462 723
e 463 691
e 463 646
e 464 524
e 465 928
e 465 689
e 467 962
e 467 524
e 468 576
e 468 732
e 468 486
e 469 864
e 471 975
e 471 707
e 471 829
e 472 663
e 472 850
e 472 803
e 472 795
e 472 877
e 473 671
e 473 686
e 473 641
e 473 804
e 477 525
e 477 904
e 478 909
e 478 692
e 479 892
e 479 848
e 482 875
e 482 778
e 482 816
e 482 624
e 484 988
e 484 849
e 484 912
e 484 858
e 485 572
e 485 847
e 485 885
e 485 544
e 486 729
e 486 827
e 486 720
e 486 666
e 487 965
e 488 556
e 489 674
e 490 577
e 490 954
e 490 899
e 490 558
e 490 732
e 492 698
e 492 829
e 493 943
e 493 937
e 494 903
e 495 774
e 495 596
e 496 646
e 496 942
e 497 855
e 497 974
e 500 514
e 500 932
e 500 630
e 500 885
e 503 729
e 503 562
e 503 722
e 505 960
e 508 853
e 508 850
e 509 669
e 509 513
e 511 706
e 511 905
e 511 749
e 511 954
e 513 554
e 513 779
e 513 702
e 514 688
e 514 964
e 514 913
e 514 862
e 514 732
e 514 680
e 516 963
e 516 745
e 516 879
e 520 697
e 523 760
e 524 837
e 524 578
e 524 868
e 525 923
e 527 578
e 527 756
e 528 613
e 528 877
e 532 921
e 532 898
e 533 693
e 533 954
e 534 651
e 535 564
e 535 599
e 537 616
e 537 865
e 538 943
e 538 897
e 538 930
e 541 681
e 541 988
e 541 793
e 541 767
e 541 624
e 542 593
e 545 910
e 545 724
e 546 723
e 547 957
e 548 753
e 548 846
e 549 702
e 551 746
e 551 559
e 552 934
e 552 853
e 552 777
e 552 698
e 552 800
e 553 946
e 553 664
e 553 956
e 553 990
e 553 760
e 553 861
e 554 965
e 555 870
e 555 687
e 556 896
e 556 897
e 557 846
e 557 575
e 558 559
e 558 970
e 559 674
e 559 890
e 559 689
e 559 933
e 559 971
e 559 799
e 560 569
e 560 994
e 562 848
e 562 956
e 562 620
e 562 569
e 564 976
e 564 646
e 566 692
e 566 937
e 566 641
e 566 952
e 568 807
e 568 936
e 568 893
e 569 715
e 569 829
e 569 756
e 570 728
e 571 947
e 571 859
e 571 942
e 572 645
e 575 935
e 575 636
e 575 907
e 575 806
e 576 875
e 576 937
e 576 656
e 577 974
e 577 721
e 577 777
e 579 798
e 579 837
e 580 920
e 580 897
e 580 901
e 580 624
e 583 833
e 583 812
e 583 894
e 585 606
e 588 623
e 589 693
e 589 613
e 589 940
e 592 927
e 592 893
e 592 844
e 592 979
e 592 882
e 592 672
e 593 910
e 595 623
e 599 879
e 599 803
e 599 826
e 600 854
e 600 815
e 600 737
e 601 754
e 603 870
e 603 664
e 606 770
e 606 833
e 606 633
e 606 945
e 607 679
e 607 687
e 607 840
e 609 949
e 609 866
e 612 862
e 612 777
e 612 723
e 612 954
e 613 736
e 613 742
e 616 639
e 616 937
e 617 814
e 617 792
e 618 912
e 618 749
e 620 767
e 620 975
e 623 707
e 623 943
e 625 722
e 625 656
e 626 736
e 626 943
e 626 652
e 626 973
e 626 846
e 627 791
e 628 803
e 629 710
e 629 907
e 633 652
e 633 970
e 633 743
e 634 845
e 634 868
e 635 766
e 635 675
e 636 945
e 636 824
e 637 719
e 641 837
e 641 935
e 642 928
e 642 929
e 643 680
e 643 883
e 644 866
e 645 677
e 645 665
e 645 787
e 646 873
e 646 984
e 648 744
e 648 881
e 648 921
e 648 793
e 650 770
e 650 726
e 650 690
e 650 956
e 651 741
e 652 901
e 652 734
e 653 817
e 656 846
e 658 796
e 658 903
e 658 732
e 659 796
e 659 697
e 659 800
e 659 812
e 659 778
e 662 769
e 662 688
e 662 735
e 663 944
e 663 865
e 664 855
e 664 868
e 664 965
e 667 791
e 667 728
e 667 959
e 669 851
e 671 714
e 671 862
e 674 809
e 675 883
e 675 816
e 676 714
e 676 963
e 676 779
e 677 938
e 678 729
e 679 741
e 680 699
e 684 776
e 685 722
e 685 859
e 686 721
e 687 856
e 689 734
e 689 826
e 689 994
e 690 841
e 690 934
e 691 710
e 691 906
e 692 840
e 692 844
e 692 718
e 693 706
e 693 753
e 695 929
e 695 988
e 695 839
e 696 934
e 697 851
e 698 738
e 698 812
e 699 736
e 701 769
e 702 847
e 702 735
e 702 963
e 704 785
e 704 859
e 704 795
e 705 885
e 706 907
e 707 846
e 707 912
e 710 782
e 712 905
e 713 825
e 713 960
e 713 814
e 714 850
e 715 965
e 715 920
e 715 809
e 716 962
e 716 847
e 717 913
e 720 973
e 720 905
e 721 811
e 721 984
e 722 782
e 722 728
e 723 906
e 723 995
e 723 947
e 728 884
e 728 995
e 730 946
e 731 886
e 731 910
e 732 954
e 733 956
e 734 738
e 735 805
e 735 825
e 736 998
e 737 831
e 737 877
e 738 882
e 741 908
e 742 971
e 742 891
e 743 922
e 744 792
e 745 922
e 745 858
e 748 839
e 748 838
e 748 907
e 748 985
e 749 909
e 750 967
e 751 862
e 753 820
e 754 829
e 755 777
e 756 819
e 756 957
e 761 873
e 761 972
e 764 959
e 766 899
e 766 809
e 768 988
e 768 859
e 768 827
e 769 893
e 770 892
e 770 967
e 770 845
e 771 962
e 772 862
e 774 859
e 774 891
e 774 988
e 776 818
e 778 785
e 778 921
e 779 946
e 781 960
e 781 850
e 782 891
e 782 859
e 787 917
e 787 810
e 789 818
e 792 847
e 793 971
e 793 994
e 795 940
e 796 861
e 799 805
e 800 919
e 801 957
e 804 921
e 804 983
e 806 932
e 808 812
e 810 974
e 811 845
e 813 856
e 813 926
e 814 849
e 816 936
e 816 946
e 817 963
e 819 845
e 820 880
e 823 943
e 824 864
e 828 920
e 829 952
e 829 959
e 829 881
e 831 910
e 832 919
e 837 904
e 838 890
e 843 912
e 844 943
e 847 920
e 849 1000
e 853 938
e 854 954
e 854 870
e 855 883
e 855 926
e 858 924
e 859 956
e 861 923
e 862 868
e 864 887
e 868 936
e 870 945
e 873 958
e 873 964
e 881 983
e 883 884
e 883 974
e 887 999
e 890 969
e 892 970
e 893 925
e 899 975
e 903 931
e 908 947
e 912 945
e 914 979
e 930 973
e 931 960
e 940 998
e 956 972
e 958 983
e 979 985
